(push)
(declare-const n Int)
(assert (>= n 0))
(declare-const m Int)
(assert (>= m 0))
(assert (= n 0))
(assert (not (<= 0 (* (+ m 2) n))))
(check-sat)
(pop)

(push)
(declare-const n Int)
(assert (>= n 0))
(declare-const m Int)
(assert (>= m 0))
(declare-const n! Int)
(assert (>= n! 0))
(assert (= (+ n! 1) n))
(assert (not (<= (+ (+ 1 m) (+ 1 (* (+ m 2) n!))) (* (+ m 2) n))))
(check-sat)
(pop)
